Route #1: 85 86 100 141 16 61 106 88 52 60 
Route #2: 1 7 47 8 48 46 82 123 19 118 
Route #3: 62 36 32 108 20 51 128 66 64 49 124 143 
Route #4: 28 109 73 133 58 74 110 23 67 39 115 
Route #5: 26 54 55 24 50 70 30 5 91 113 83 45 125 
Route #6: 31 127 107 11 10 90 126 63 131 103 68 77 
Route #7: 144 59 94 18 114 17 15 41 22 145 96 6 147 
Route #8: 140 84 95 117 130 121 120 9 71 65 76 149 111 
Route #9: 56 21 137 142 14 43 38 104 98 44 119 42 97 12 105 
Route #10: 148 146 13 89 112 93 92 87 37 57 75 25 2 53 
Route #11: 150 116 3 102 132 69 101 79 78 4 139 72 27 
Route #12: 138 134 80 29 33 81 135 136 35 34 129 122 40 99 
cost 2247.38
execution_time 65.931
